/* Template for the example simulations of the ALMA Tutorials 2021 MuMax3 workshop.
   Author: Dr. David Cortés-Ortuño
   Utrecht University
   d.i.cortes@uu.nl
*/

SetGridsize(128, 32, 1)
SetCellsize(500e-9 / 128,
125e-9 / 32,
3e-9 / 1)
Msat = 800e3
Aex
= 13e-12
alpha = 0.02
m = uniform(1, .1, 0)
relax()
save(m)
// relaxed state
autosave(m, 200e-12)
tableautosave(10e-12)
B_ext = vector(-24.6E-3, 4.3E-3, 0)
run(1e-9)
